solution status: optimal solution found
objective value:                     178737.640336074
d11(0,0)                                            1 	(obj:0)
d11(1,1)                                            1 	(obj:0)
d11(1,2)                                            1 	(obj:0)
d11(2,4)                                            1 	(obj:0)
d11(2,5)                                            1 	(obj:0)
d11(2,6)                                            1 	(obj:0)
d11(2,7)                                            1 	(obj:0)
d11(2,8)                                            1 	(obj:0)
d11(2,9)                                            1 	(obj:0)
d11(2,10)                                           1 	(obj:0)
d11(2,11)                                           1 	(obj:0)
d11(2,12)                                           1 	(obj:0)
d11(3,19)                                           1 	(obj:0)
d11(3,25)                                           1 	(obj:0)
d11(3,28)                                           1 	(obj:0)
d11(3,34)                                           1 	(obj:0)
d11(3,37)                                           1 	(obj:0)
d11(4,67)                                           1 	(obj:0)
d12(1,3)                                            1 	(obj:0)
d12(3,14)                                           1 	(obj:0)
d12(3,15)                                           1 	(obj:0)
d12(3,17)                                           1 	(obj:0)
d12(3,18)                                           1 	(obj:0)
d12(3,20)                                           1 	(obj:0)
d12(3,21)                                           1 	(obj:0)
d12(3,23)                                           1 	(obj:0)
d12(3,24)                                           1 	(obj:0)
d12(3,26)                                           1 	(obj:0)
d12(3,27)                                           1 	(obj:0)
d12(3,29)                                           1 	(obj:0)
d12(3,30)                                           1 	(obj:0)
d12(3,32)                                           1 	(obj:0)
d12(3,33)                                           1 	(obj:0)
d12(3,35)                                           1 	(obj:0)
d12(3,36)                                           1 	(obj:0)
d12(3,38)                                           1 	(obj:0)
d12(3,39)                                           1 	(obj:0)
d12(4,41)                                           1 	(obj:0)
d12(4,42)                                           1 	(obj:0)
d12(4,44)                                           1 	(obj:0)
d12(4,45)                                           1 	(obj:0)
d12(4,47)                                           1 	(obj:0)
d12(4,48)                                           1 	(obj:0)
d12(4,50)                                           1 	(obj:0)
d12(4,51)                                           1 	(obj:0)
d12(4,53)                                           1 	(obj:0)
d12(4,54)                                           1 	(obj:0)
d12(4,56)                                           1 	(obj:0)
d12(4,57)                                           1 	(obj:0)
d12(4,59)                                           1 	(obj:0)
d12(4,60)                                           1 	(obj:0)
d12(4,62)                                           1 	(obj:0)
d12(4,63)                                           1 	(obj:0)
d12(4,65)                                           1 	(obj:0)
d12(4,66)                                           1 	(obj:0)
d12(4,68)                                           1 	(obj:0)
d12(4,69)                                           1 	(obj:0)
d12(4,71)                                           1 	(obj:0)
d12(4,72)                                           1 	(obj:0)
d12(4,74)                                           1 	(obj:0)
d12(4,75)                                           1 	(obj:0)
d12(4,77)                                           1 	(obj:0)
d12(4,78)                                           1 	(obj:0)
d12(4,80)                                           1 	(obj:0)
d12(4,81)                                           1 	(obj:0)
d12(4,83)                                           1 	(obj:0)
d12(4,84)                                           1 	(obj:0)
d12(4,86)                                           1 	(obj:0)
d12(4,87)                                           1 	(obj:0)
d12(4,89)                                           1 	(obj:0)
d12(4,90)                                           1 	(obj:0)
d12(4,92)                                           1 	(obj:0)
d12(4,93)                                           1 	(obj:0)
d12(4,95)                                           1 	(obj:0)
d12(4,96)                                           1 	(obj:0)
d12(4,98)                                           1 	(obj:0)
d12(4,99)                                           1 	(obj:0)
d12(4,101)                                          1 	(obj:0)
d12(4,102)                                          1 	(obj:0)
d12(4,104)                                          1 	(obj:0)
d12(4,105)                                          1 	(obj:0)
d12(4,107)                                          1 	(obj:0)
d12(4,108)                                          1 	(obj:0)
d12(4,110)                                          1 	(obj:0)
d12(4,111)                                          1 	(obj:0)
d12(4,113)                                          1 	(obj:0)
d12(4,114)                                          1 	(obj:0)
d12(4,116)                                          1 	(obj:0)
d12(4,117)                                          1 	(obj:0)
d12(4,119)                                          1 	(obj:0)
d12(4,120)                                          1 	(obj:0)
d21(2,4)                                            1 	(obj:0)
d21(3,13)                                           1 	(obj:0)
d21(3,14)                                           1 	(obj:0)
d21(3,16)                                           1 	(obj:0)
d21(3,22)                                           1 	(obj:0)
d21(4,40)                                           1 	(obj:0)
d21(4,41)                                           1 	(obj:0)
d21(4,42)                                           1 	(obj:0)
d21(4,43)                                           1 	(obj:0)
d21(4,44)                                           1 	(obj:0)
d21(4,45)                                           1 	(obj:0)
d21(4,46)                                           1 	(obj:0)
d21(4,47)                                           1 	(obj:0)
d21(4,49)                                           1 	(obj:0)
d21(4,50)                                           1 	(obj:0)
d21(4,52)                                           1 	(obj:0)
d21(4,53)                                           1 	(obj:0)
d21(4,58)                                           1 	(obj:0)
d21(4,67)                                           1 	(obj:0)
d21(4,68)                                           1 	(obj:0)
d21(4,70)                                           1 	(obj:0)
d21(4,71)                                           1 	(obj:0)
d21(4,76)                                           1 	(obj:0)
d21(4,94)                                           1 	(obj:0)
y2(4,101)                            798.591296999947 	(obj:0)
y2(4,102)                            1894.29827999999 	(obj:0)
y2(4,104)                            798.591296999947 	(obj:0)
y2(4,105)                            1894.29827999999 	(obj:0)
y2(4,107)                            798.591296999947 	(obj:0)
y2(4,108)                            1894.29827999999 	(obj:0)
y2(4,110)                            798.591296999947 	(obj:0)
y2(4,111)                            1894.29827999999 	(obj:0)
y2(4,113)                            798.591296999947 	(obj:0)
y2(4,114)                            1894.29827999999 	(obj:0)
y2(4,116)                            798.591296999947 	(obj:0)
y2(4,117)                            1894.29827999999 	(obj:0)
y2(4,119)                            798.591296999947 	(obj:0)
y2(4,120)                            1894.29827999999 	(obj:0)
STE(1,1)                             12467.7643633987 	(obj:0)
STE(0,0)                                        15750 	(obj:0)
STE(1,2)                              13464.530366732 	(obj:0)
STE(1,3)                                        14490 	(obj:0)
STE(2,4)                             4492.80626118343 	(obj:0)
STE(2,5)                             5489.57226451672 	(obj:0)
STE(2,6)                              6707.0244678501 	(obj:0)
STE(2,7)                             5489.57226451676 	(obj:0)
STE(2,8)                             6486.33826785005 	(obj:0)
STE(2,9)                             7703.79047118343 	(obj:0)
STE(2,10)                            6515.04189778477 	(obj:0)
STE(2,11)                            7511.80790111807 	(obj:0)
STE(2,12)                            8729.26010445144 	(obj:0)
STE(3,13)                            3232.80626118343 	(obj:0)
STE(3,14)                            3991.46799333338 	(obj:0)
STE(3,15)                            5032.38962718342 	(obj:0)
STE(3,16)                            4229.57226451672 	(obj:0)
STE(3,17)                            4988.23399666667 	(obj:0)
STE(3,18)                            6029.15563051671 	(obj:0)
STE(3,19)                             5447.0244678501 	(obj:0)
STE(3,20)                            6205.68620000005 	(obj:0)
STE(3,21)                            7246.60783385009 	(obj:0)
STE(3,22)                            4229.57226451676 	(obj:0)
STE(3,23)                            4988.23399666671 	(obj:0)
STE(3,24)                            6029.15563051675 	(obj:0)
STE(3,25)                            5226.33826785005 	(obj:0)
STE(3,26)                                        5985 	(obj:0)
STE(3,27)                            7025.92163385004 	(obj:0)
STE(3,28)                            6443.79047118343 	(obj:0)
STE(3,29)                            7202.45220333338 	(obj:0)
STE(3,30)                            8243.37383718342 	(obj:0)
STE(3,31)                            5255.04189778477 	(obj:0)
STE(3,32)                            6013.70362993473 	(obj:0)
STE(3,33)                            7054.62526378476 	(obj:0)
STE(3,34)                            6251.80790111807 	(obj:0)
STE(3,35)                            7010.46963326802 	(obj:0)
STE(3,36)                            8051.39126711805 	(obj:0)
STE(3,37)                            7469.26010445144 	(obj:0)
STE(3,38)                            8227.92183660139 	(obj:0)
STE(3,39)                            9268.84347045143 	(obj:0)
STE(4,40)                            1972.80626118343 	(obj:0)
STE(4,41)                            2731.46799333338 	(obj:0)
STE(4,42)                            3772.38962718342 	(obj:0)
STE(4,43)                            2731.46799333338 	(obj:0)
STE(4,44)                            3490.12972548333 	(obj:0)
STE(4,45)                            4531.05135933337 	(obj:0)
STE(4,46)                            3772.38962718342 	(obj:0)
STE(4,47)                            4531.05135933337 	(obj:0)
STE(4,48)                            5571.97299318341 	(obj:0)
STE(4,49)                            2969.57226451672 	(obj:0)
STE(4,50)                            3728.23399666667 	(obj:0)
STE(4,51)                            4769.15563051671 	(obj:0)
STE(4,52)                            3728.23399666667 	(obj:0)
STE(4,53)                            4486.89572881662 	(obj:0)
STE(4,54)                            5527.81736266666 	(obj:0)
STE(4,55)                            4769.15563051671 	(obj:0)
STE(4,56)                            5527.81736266666 	(obj:0)
STE(4,57)                             6568.7389965167 	(obj:0)
STE(4,58)                             4187.0244678501 	(obj:0)
STE(4,59)                            4945.68620000005 	(obj:0)
STE(4,60)                            5986.60783385009 	(obj:0)
STE(4,61)                            4945.68620000005 	(obj:0)
STE(4,62)                               5704.34793215 	(obj:0)
STE(4,63)                            6745.26956600004 	(obj:0)
STE(4,64)                            5986.60783385009 	(obj:0)
STE(4,65)                            6745.26956600004 	(obj:0)
STE(4,66)                            7786.19119985008 	(obj:0)
STE(4,67)                            2969.57226451674 	(obj:0)
STE(4,68)                            3728.23399666671 	(obj:0)
STE(4,69)                            4769.15563051675 	(obj:0)
STE(4,70)                            3728.23399666671 	(obj:0)
STE(4,71)                            4486.89572881666 	(obj:0)
STE(4,72)                             5527.8173626667 	(obj:0)
STE(4,73)                            4769.15563051675 	(obj:0)
STE(4,74)                             5527.8173626667 	(obj:0)
STE(4,75)                            6568.73899651673 	(obj:0)
STE(4,76)                            3966.33826785005 	(obj:0)
STE(4,77)                                        4725 	(obj:0)
STE(4,78)                            5765.92163385004 	(obj:0)
STE(4,79)                                        4725 	(obj:0)
STE(4,80)                            5483.66173214995 	(obj:0)
STE(4,81)                            6524.58336599999 	(obj:0)
STE(4,82)                            5765.92163385004 	(obj:0)
STE(4,83)                            6524.58336599999 	(obj:0)
STE(4,84)                            7565.50499985003 	(obj:0)
STE(4,85)                            5183.79047118343 	(obj:0)
STE(4,86)                            5942.45220333338 	(obj:0)
STE(4,87)                            6983.37383718342 	(obj:0)
STE(4,88)                            5942.45220333338 	(obj:0)
STE(4,89)                            6701.11393548333 	(obj:0)
STE(4,90)                            7742.03556933336 	(obj:0)
STE(4,91)                            6983.37383718342 	(obj:0)
STE(4,92)                            7742.03556933337 	(obj:0)
STE(4,93)                            8782.95720318341 	(obj:0)
STE(4,94)                            3995.04189778478 	(obj:0)
STE(4,95)                            4753.70362993472 	(obj:0)
STE(4,96)                            5794.62526378476 	(obj:0)
STE(4,97)                            4753.70362993473 	(obj:0)
STE(4,98)                            5512.36536208468 	(obj:0)
STE(4,99)                            6553.28699593471 	(obj:0)
STE(4,100)                           5794.62526378476 	(obj:0)
STE(4,101)                           6553.28699593471 	(obj:0)
STE(4,102)                           7594.20862978475 	(obj:0)
STE(4,103)                           4991.80790111807 	(obj:0)
STE(4,104)                           5750.46963326802 	(obj:0)
STE(4,105)                           6791.39126711805 	(obj:0)
STE(4,106)                           5750.46963326802 	(obj:0)
STE(4,107)                           6509.13136541797 	(obj:0)
STE(4,108)                             7550.052999268 	(obj:0)
STE(4,109)                           6791.39126711805 	(obj:0)
STE(4,110)                             7550.052999268 	(obj:0)
STE(4,111)                           8590.97463311804 	(obj:0)
STE(4,112)                           6209.26010445144 	(obj:0)
STE(4,113)                           6967.92183660139 	(obj:0)
STE(4,114)                           8008.84347045143 	(obj:0)
STE(4,115)                           6967.92183660139 	(obj:0)
STE(4,116)                           7726.58356875134 	(obj:0)
STE(4,117)                           8767.50520260138 	(obj:0)
STE(4,118)                           8008.84347045143 	(obj:0)
STE(4,119)                           8767.50520260138 	(obj:0)
STE(4,120)                           9808.42683645142 	(obj:0)
WB(3)                                  936.8678433139 	(obj:0)
AVE(3)                                3399.3204933139 	(obj:0)
WB(4)                                3353.21046544222 	(obj:0)
AVE(4)                               3353.21046544222 	(obj:0)
y2(4,99)                             1894.29827999999 	(obj:0)
WG(3)                                      2462.45265 	(obj:10)
BG(1)                                4319.60782647058 	(obj:10)
BG(2)                                8629.25090713642 	(obj:10)
BG(4)                                      2462.45265 	(obj:10)
WB(1)                                3134.60043707458 	(obj:0)
AVE(1)                               3134.60043707458 	(obj:0)
WB(2)                                3326.45170866643 	(obj:0)
AVE(2)                               3326.45170866643 	(obj:0)
y1(1,1)                              1820.01207294121 	(obj:0)
y1(1,2)                              922.922669941217 	(obj:0)
y1(2,4)                               6043.4622919937 	(obj:0)
y1(2,5)                              5146.37288899374 	(obj:0)
y1(2,6)                               4050.6659059937 	(obj:0)
y1(2,7)                               6043.4622919937 	(obj:0)
y1(2,8)                              5146.37288899374 	(obj:0)
y1(2,9)                               4050.6659059937 	(obj:0)
y1(2,10)                              6043.4622919937 	(obj:0)
y1(2,11)                             5146.37288899374 	(obj:0)
y1(2,12)                              4050.6659059937 	(obj:0)
y2(3,14)                             798.591296999948 	(obj:0)
y2(3,15)                             1894.29827999999 	(obj:0)
y2(3,17)                             798.591296999948 	(obj:0)
y2(3,18)                             1894.29827999999 	(obj:0)
y2(3,20)                             798.591296999947 	(obj:0)
y2(3,21)                             1894.29827999999 	(obj:0)
y2(3,23)                             798.591296999947 	(obj:0)
y2(3,24)                             1894.29827999999 	(obj:0)
y2(3,26)                             798.591296999947 	(obj:0)
y2(3,27)                             1894.29827999999 	(obj:0)
y2(3,29)                             798.591296999947 	(obj:0)
y2(3,30)                             1894.29827999999 	(obj:0)
y2(3,32)                             798.591296999948 	(obj:0)
y2(3,33)                             1894.29827999999 	(obj:0)
y2(3,35)                             798.591296999948 	(obj:0)
y2(3,36)                             1894.29827999999 	(obj:0)
y2(3,38)                             798.591296999948 	(obj:0)
y2(3,39)                             1894.29827999999 	(obj:0)
y2(4,41)                             798.591296999947 	(obj:0)
y2(4,42)                             1894.29827999999 	(obj:0)
y2(4,44)                             798.591296999947 	(obj:0)
y2(4,45)                             1894.29827999999 	(obj:0)
y2(4,47)                             798.591296999947 	(obj:0)
y2(4,48)                             1894.29827999999 	(obj:0)
y2(4,50)                             798.591296999947 	(obj:0)
y2(4,51)                             1894.29827999999 	(obj:0)
y2(4,53)                             798.591296999947 	(obj:0)
y2(4,54)                             1894.29827999999 	(obj:0)
y2(4,56)                             798.591296999947 	(obj:0)
y2(4,57)                             1894.29827999999 	(obj:0)
y2(4,59)                             798.591296999947 	(obj:0)
y2(4,60)                             1894.29827999999 	(obj:0)
y2(4,62)                             798.591296999947 	(obj:0)
y2(4,63)                             1894.29827999999 	(obj:0)
y2(4,65)                             798.591296999947 	(obj:0)
y2(4,66)                             1894.29827999999 	(obj:0)
y2(4,68)                             798.591296999947 	(obj:0)
y2(4,69)                             1894.29827999999 	(obj:0)
y2(4,71)                             798.591296999947 	(obj:0)
y2(4,72)                             1894.29827999999 	(obj:0)
y2(4,74)                             798.591296999947 	(obj:0)
y2(4,75)                             1894.29827999999 	(obj:0)
y2(4,77)                             798.591296999947 	(obj:0)
y2(4,78)                             1894.29827999999 	(obj:0)
y2(4,80)                             798.591296999947 	(obj:0)
y2(4,81)                             1894.29827999999 	(obj:0)
y2(4,83)                             798.591296999947 	(obj:0)
y2(4,84)                             1894.29827999999 	(obj:0)
y2(4,86)                             798.591296999947 	(obj:0)
y2(4,87)                             1894.29827999999 	(obj:0)
y2(4,89)                             798.591296999947 	(obj:0)
y2(4,90)                             1894.29827999999 	(obj:0)
y2(4,92)                             798.591296999947 	(obj:0)
y2(4,93)                             1894.29827999999 	(obj:0)
y2(4,95)                             798.591296999947 	(obj:0)
y2(4,96)                             1894.29827999999 	(obj:0)
y2(4,98)                             798.591296999947 	(obj:0)
